NAME : A-n62-k8
COMMENT : (Augerat et al, Min no of trucks: 8, Best value: 1290)
TYPE : CVRP
DIMENSION : 62
EDGE_WEIGHT_TYPE : EUC_2D 
CAPACITY : 100
NODE_COORD_SECTION 
 1 2 48
 2 64 71
 3 33 83
 4 77 89
 5 96 61
 6 53 55
 7 38 10
 8 7 40
 9 7 1
 10 73 68
 11 4 24
 12 82 56
 13 30 56
 14 38 62
 15 42 53
 16 5 49
 17 1 85
 18 94 4
 19 50 70
 20 35 69
 21 14 41
 22 94 73
 23 23 96
 24 96 88
 25 74 94
 26 68 52
 27 73 22
 28 92 96
 29 4 48
 30 24 10
 31 52 72
 32 61 46
 33 38 9
 34 90 15
 35 58 41
 36 93 41
 37 8 74
 38 13 87
 39 34 68
 40 84 97
 41 35 20
 42 96 79
 43 73 87
 44 21 1
 45 28 93
 46 55 94
 47 56 84
 48 68 99
 49 30 53
 50 85 49
 51 85 2
 52 0 30
 53 12 71
 54 26 55
 55 72 75
 56 71 21
 57 33 49
 58 51 2
 59 93 7
 60 70 22
 61 54 53
 62 26 17
DEMAND_SECTION 
1 0 
2 26 
3 18 
4 16 
5 8 
6 7 
7 11 
8 4 
9 9 
10 9 
11 16 
12 7 
13 6 
14 1 
15 2 
16 22 
17 23 
18 4 
19 3 
20 20 
21 7 
22 1 
23 2 
24 12 
25 22 
26 6 
27 11 
28 12 
29 2 
30 14 
31 14 
32 2 
33 9 
34 20 
35 2 
36 18 
37 19 
38 18 
39 4 
40 16 
41 26 
42 3 
43 23 
44 16 
45 10 
46 9 
47 21 
48 24 
49 24 
50 19 
51 12 
52 16 
53 6 
54 2 
55 2 
56 2 
57 23 
58 16 
59 26 
60 21 
61 2 
62 7 
DEPOT_SECTION 
 1  
 -1  
EOF 
